SECTION Graph
Nodes 160
Edges 159

E 1 3 290
E 1 76 289
E 1 129 289
E 1 132 290
E 1 135 292
E 2 134 291
E 3 24 291
E 3 64 292
E 3 96 290
E 3 152 292
E 4 84 292
E 5 76 290
E 5 95 291
E 5 142 293
E 6 8 288
E 6 82 287
E 6 103 291
E 7 48 290
E 7 85 290
E 8 78 291
E 9 119 293
E 10 20 290
E 10 150 284
E 10 156 292
E 11 84 293
E 12 52 290
E 12 100 286
E 13 81 289
E 13 93 291
E 14 42 293
E 15 97 291
E 16 25 290
E 16 137 291
E 17 73 286
E 17 99 288
E 17 116 289
E 17 125 290
E 18 44 292
E 18 121 289
E 19 128 293
E 19 154 293
E 20 107 293
E 20 117 289
E 20 143 292
E 21 144 291
E 21 148 291
E 22 34 281
E 22 81 288
E 22 103 290
E 23 28 288
E 23 56 292
E 24 27 289
E 24 42 288
E 24 54 286
E 24 66 294
E 25 129 286
E 26 64 291
E 26 74 293
E 26 139 292
E 28 29 291
E 28 102 291
E 28 118 289
E 29 136 290
E 30 87 288
E 31 132 292
E 32 123 291
E 33 36 294
E 33 45 291
E 34 101 291
E 35 83 290
E 35 120 291
E 37 133 293
E 38 110 289
E 39 45 292
E 40 50 290
E 40 59 291
E 40 114 291
E 40 123 291
E 41 110 286
E 41 115 290
E 41 153 289
E 42 128 287
E 42 150 291
E 43 45 286
E 45 130 290
E 46 115 291
E 47 118 292
E 47 126 291
E 47 151 286
E 48 86 289
E 49 132 295
E 51 102 294
E 52 84 289
E 52 137 290
E 53 59 291
E 53 80 292
E 55 69 294
E 55 141 291
E 57 76 293
E 58 65 290
E 58 99 291
E 59 131 288
E 60 64 287
E 60 120 289
E 61 99 290
E 61 106 289
E 61 108 291
E 62 127 290
E 63 132 291
E 65 110 291
E 65 147 291
E 67 144 291
E 68 104 293
E 70 101 290
E 71 123 290
E 71 141 290
E 72 79 290
E 73 77 287
E 73 112 291
E 75 111 291
E 76 113 293
E 77 102 285
E 77 131 290
E 79 110 290
E 79 122 292
E 85 102 291
E 85 119 289
E 86 97 291
E 86 121 291
E 86 124 288
E 87 106 292
E 88 97 290
E 89 107 289
E 90 92 291
E 90 105 291
E 90 106 290
E 90 133 291
E 91 134 291
E 94 140 291
E 94 144 292
E 95 130 289
E 98 125 293
E 99 140 292
E 102 109 291
E 103 133 292
E 104 135 291
E 105 149 290
E 105 159 290
E 110 134 288
E 111 135 291
E 121 160 290
E 125 132 291
E 125 146 292
E 127 128 290
E 133 158 293
E 138 155 291
E 143 155 292
E 145 154 292
E 155 157 292
END
SECTION Terminals
T 1
T 2
T 3
T 4
T 5
T 6
T 7
T 8
T 9
T 10
T 11
T 12
T 13
T 14
T 15
T 16
T 17
T 18
T 19
T 20
T 21
T 22
T 23
T 24
T 25
T 26
T 27
T 28
T 29
T 30
T 31
T 32
T 33
T 34
T 35
T 36
T 37
T 38
T 39
T 40
T 41
T 42
T 43
T 44
T 45
T 46
T 47
T 48
T 49
T 50
T 51
T 52
T 53
T 54
T 55
T 56
T 57
T 58
T 59
T 60
T 61
T 62
T 63
T 64
T 65
T 66
T 67
T 68
T 69
T 70
T 71
T 72
T 73
T 74
T 75
T 76
T 77
T 78
T 79
T 80
T 81
T 82
T 83
T 84
T 85
T 86
T 87
T 88
T 89
T 90
T 91
T 92
T 93
T 94
T 95
T 96
T 97
T 98
T 99
T 100
T 101
T 102
T 103
T 104
T 105
T 106
T 107
T 108
T 109
T 110
T 111
T 112
T 113
T 114
T 115
T 116
T 117
T 118
T 119
T 120
T 121
T 122
T 123
T 124
T 125
T 126
T 127
T 128
T 129
T 130
T 131
T 132
T 133
T 134
T 135
T 136
T 137
T 138
T 139
T 140
T 141
T 142
T 143
T 144
T 145
T 146
T 147
T 148
T 149
T 150
T 151
T 152
T 153
T 154
T 155
T 156
T 157
T 158
T 159
T 160
END
SECTION Cost
46168
END
